p cnf 240 447
9  -5  -6  0
13  -9  -10  0
17  13  14  0
-21  17  -18  0
25  -21  -22  0
29  -25  -26  0
-37  33  34  0
41  -37  -38  0
45  41  42  0
-49  -45  -46  0
57  -53  54  0
-61  -57  58  0
-69  65  66  0
73  69  -70  0
81  77  78  0
101  97  98  0
105  101  -102  0
109  -105  106  0
113  -109  -110  0
117  113  114  0
-121  -117  -118  0
-125  121  122  0
129  125  126  0
133  -129  130  0
-137  133  -134  0
-141  137  -138  0
-157  153  154  0
161  157  158  0
165  -161  162  0
169  -165  166  0
173  169  170  0
181  -177  178  0
-189  -185  -186  0
-193  -189  190  0
-201  197  -198  0
-205  201  -202  0
209  205  206  0
213  -209  -210  0
-221  217  -218  0
225  221  222  0
229  225  226  0
-237  -233  234  0
-6  5  -2  0
6  5  -1  0
6  2  -3  0
10  9  6  0
-10  -9  -5  0
10  6  7  0
-14  -13  -10  0
14  -13  9  0
-14  -9  -10  0
14  10  11  0
18  -17  14  0
22  -21  17  0
-26  -25  -22  0
-26  -25  -21  0
-26  21  -22  0
-26  -22  23  0
-30  29  26  0
-30  -29  25  0
-30  -25  26  0
-30  -26  -27  0
34  -33  30  0
-34  33  -29  0
-34  -29  -30  0
-34  30  31  0
38  -34  -35  0
-42  -41  38  0
42  -41  37  0
-42  37  38  0
42  -38  -39  0
-46  45  42  0
-46  45  -41  0
50  -45  46  0
-54  -53  -50  0
54  49  -50  0
54  50  -51  0
58  57  53  0
58  53  54  0
-62  61  -58  0
62  -61  57  0
62  58  59  0
-66  -65  -62  0
66  61  62  0
-66  -62  63  0
-70  69  65  0
-70  65  66  0
70  -66  -67  0
74  73  -70  0
-74  -69  -70  0
-74  -70  71  0
78  77  -74  0
-78  77  73  0
-78  74  75  0
-82  -81  -77  0
82  -77  78  0
86  -85  -82  0
-86  -85  -81  0
-86  81  -82  0
-86  -82  83  0
90  -89  86  0
-94  -89  -90  0
98  -97  -94  0
-98  -93  94  0
98  -94  -95  0
-102  -101  -98  0
102  -101  -97  0
102  97  98  0
102  98  99  0
-106  105  102  0
-106  -101  102  0
-110  109  -106  0
110  105  106  0
114  -113  109  0
-114  -110  111  0
-118  -117  113  0
-118  114  115  0
122  -121  -118  0
-122  -118  -119  0
-126  -121  122  0
126  122  -123  0
130  129  -126  0
-130  126  -127  0
134  -133  130  0
-134  129  130  0
134  130  131  0
138  -137  -134  0
-138  137  -133  0
138  -133  -134  0
142  -141  138  0
142  141  -137  0
142  -138  139  0
146  -145  -142  0
146  141  -142  0
146  -142  -143  0
-150  149  146  0
150  -149  145  0
154  -153  -149  0
-154  150  -151  0
158  -157  154  0
-158  -157  -153  0
-162  -161  158  0
-162  -161  157  0
-162  -157  158  0
-162  158  159  0
166  165  162  0
166  -161  162  0
166  162  -163  0
170  169  -165  0
170  166  -167  0
-174  -173  170  0
-174  -173  -169  0
174  169  170  0
174  170  171  0
-178  177  173  0
178  -173  -174  0
182  -181  178  0
182  -177  -178  0
-182  -178  179  0
190  189  185  0
-194  -193  190  0
194  193  189  0
-194  190  191  0
198  -194  195  0
202  -201  197  0
-202  -198  199  0
206  -205  -202  0
206  -205  -201  0
206  201  -202  0
206  202  -203  0
210  -209  -205  0
210  -206  -207  0
-214  209  210  0
-214  -210  -211  0
218  -217  214  0
-222  -221  217  0
222  217  218  0
-222  -218  -219  0
-226  225  -221  0
-226  -221  -222  0
226  222  223  0
-230  -229  226  0
-230  -229  225  0
-230  -225  226  0
230  226  227  0
-234  233  -229  0
234  229  230  0
238  237  234  0
238  -237  -233  0
238  233  234  0
238  -234  235  0
-7  -6  -3  0
-7  -3  -4  0
-11  -10  -7  0
11  10  -6  0
-11  -7  -8  0
-15  14  -11  0
15  -14  10  0
-15  -11  12  0
19  18  -14  0
19  14  -15  0
19  15  16  0
23  18  19  0
27  22  23  0
27  23  24  0
31  30  26  0
35  34  -31  0
35  -30  31  0
35  -31  -32  0
-43  -42  39  0
43  42  38  0
-47  -46  43  0
47  46  42  0
47  43  44  0
51  50  -47  0
-51  -50  -46  0
-55  -54  51  0
-55  -50  51  0
55  -51  -52  0
59  -58  55  0
59  -58  -54  0
59  -54  -55  0
59  55  -56  0
63  62  -59  0
-63  62  58  0
63  -58  -59  0
67  -66  63  0
-67  -66  -62  0
67  -62  -63  0
-67  -63  -64  0
-71  -70  66  0
-71  -66  67  0
-75  -74  70  0
79  78  74  0
-83  -82  79  0
83  -82  78  0
-83  78  -79  0
-87  -86  83  0
-87  -83  -84  0
91  90  -86  0
95  94  91  0
95  -94  90  0
95  90  -91  0
-95  91  -92  0
99  98  95  0
99  -98  94  0
-99  95  96  0
103  102  -99  0
-103  -99  100  0
-111  -110  -107  0
111  -110  106  0
-111  106  107  0
111  -107  -108  0
-115  114  111  0
-115  114  110  0
119  118  114  0
-119  115  116  0
-123  122  118  0
123  118  -119  0
123  119  -120  0
-127  126  -123  0
-127  122  123  0
-131  130  -126  0
131  -126  -127  0
-135  134  130  0
135  -131  -132  0
-139  -138  -134  0
-139  -135  -136  0
-143  -142  -138  0
-143  -139  -140  0
147  146  -143  0
-147  -146  -142  0
147  143  144  0
-151  -150  147  0
-151  150  -146  0
-151  -147  148  0
155  -154  -151  0
-155  -154  -150  0
-155  150  -151  0
-159  158  -155  0
-159  -154  -155  0
-163  -162  159  0
-163  -162  -158  0
163  158  159  0
-163  159  160  0
167  -166  163  0
-167  -166  -162  0
-167  -163  -164  0
-171  -170  -167  0
171  167  -168  0
-175  -174  170  0
-179  178  -175  0
179  -175  176  0
183  182  -178  0
183  178  -179  0
183  179  180  0
187  186  183  0
-187  -186  -182  0
187  -182  -183  0
187  183  -184  0
-191  -190  186  0
191  -187  -188  0
195  -194  191  0
195  -194  190  0
-195  -190  -191  0
-199  -198  195  0
-199  198  -194  0
203  202  -198  0
-207  -206  -203  0
-207  -206  -202  0
-207  202  203  0
207  203  204  0
211  -210  207  0
211  -206  -207  0
211  -207  -208  0
-215  214  -211  0
-215  -214  -210  0
215  210  211  0
215  -211  -212  0
219  -218  214  0
-219  214  -215  0
223  222  219  0
-223  222  218  0
-227  -222  -223  0
227  -223  224  0
-231  -230  227  0
-231  230  -226  0
235  -234  -231  0
-235  -231  232  0
239  -238  235  0
-239  -238  -234  0
-8  -7  -3  0
12  -11  -8  0
12  -11  7  0
-12  -7  -8  0
16  15  12  0
-20  -19  -16  0
-20  19  15  0
-20  15  16  0
-24  23  -20  0
24  23  -19  0
-24  -19  20  0
-28  -27  24  0
28  -27  -23  0
-28  -23  -24  0
32  -31  -28  0
36  35  -32  0
40  -39  35  0
40  35  36  0
44  39  -40  0
-48  47  -43  0
52  51  47  0
-52  47  -48  0
56  -55  -52  0
56  -51  52  0
60  59  56  0
60  -55  56  0
64  -63  -59  0
68  67  -64  0
68  -67  -63  0
-68  63  -64  0
72  -71  -67  0
72  67  -68  0
76  75  71  0
-80  79  76  0
80  79  75  0
-84  83  -80  0
84  83  -79  0
84  -79  -80  0
88  -87  84  0
88  -87  83  0
92  91  -87  0
-92  -87  -88  0
96  95  92  0
96  -95  -91  0
-100  -99  96  0
-100  -95  96  0
104  103  -100  0
-104  103  -99  0
104  99  100  0
-108  -107  103  0
112  -111  -108  0
112  111  107  0
116  -115  111  0
-120  -119  116  0
-120  119  -115  0
124  -123  119  0
-124  119  120  0
-132  131  128  0
-132  -131  127  0
-136  135  132  0
140  139  135  0
-140  135  136  0
144  143  -140  0
144  143  -139  0
-144  139  -140  0
148  -147  -144  0
-148  147  143  0
148  143  -144  0
152  -151  148  0
-152  151  -147  0
152  147  148  0
156  -155  152  0
156  -155  151  0
-156  -151  152  0
-160  -159  156  0
160  -155  -156  0
-164  -163  -160  0
-164  163  159  0
-164  -159  -160  0
168  163  164  0
-172  -171  -168  0
172  -171  167  0
-176  -175  -172  0
-176  -175  -171  0
-176  171  172  0
180  179  175  0
-180  -175  176  0
188  187  -184  0
-188  187  183  0
188  -183  -184  0
192  191  187  0
192  -187  188  0
196  -195  -192  0
-196  195  -191  0
200  199  196  0
-200  199  -195  0
-200  195  -196  0
204  203  -199  0
-204  -199  200  0
208  207  -204  0
208  -207  203  0
-212  211  208  0
212  -211  207  0
-212  207  208  0
-216  -215  212  0
-216  -211  -212  0
220  -219  -215  0
220  -215  216  0
224  -223  -220  0
-224  -219  220  0
228  227  -224  0
228  -227  223  0
-232  -227  228  0
-236  -235  232  0
-236  -235  -231  0
240  235  -236  0
